130
1000
164
1
90
77
153
8
200
211
29
17
65
95
174
155
80
109
238
114
119
61
24
136
19
83
148
171
142
195
174
120
166
14
27
243
53
189
135
135
88
220
184
6
168
52
236
39
73
205
183
47
81
123
33
44
10
96
98
128
58
183
193
208
47
187
8
50
114
158
64
114
204
236
1
15
92
206
82
159
242
34
173
85
153
63
93
82
193
6
164
190
210
80
248
149
135
70
239
125
133
97
145
166
88
168
4
83
72
204
142
38
187
155
206
173
20
182
67
149
18
125
74
60
61
32
77
49
127
140
184
13
